data/instances/vrp_files/train_22.vrp
NAME : 22
COMMENT : Generated instance No. 22
TYPE : CVRP
DIMENSION : 21
EDGE_WEIGHT_TYPE : EUC_2D
CAPACITY : 30
NODE_COORD_SECTION
 1 479 615
 2 346 775
 3 941 72
 4 534 882
 5 82 824
 6 357 322
 7 977 200
 8 693 821
 9 41 670
 10 951 124
 11 896 594
 12 616 612
 13 298 935
 14 947 625
 15 783 612
 16 484 660
 17 553 597
 18 783 480
 19 40 163
 20 438 724
 21 593 650
DEMAND_SECTION
1 0
2 3
3 7
4 4
5 8
6 7
7 5
8 7
9 3
10 2
11 6
12 2
13 3
14 6
15 5
16 8
17 9
18 3
19 10
20 3
21 3
DEPOT_SECTION
 1
 -1
EOF